
  22    4
  10   10   10   10

   0   0   0   0   0   6 2 3 6 9 12 21 
   8  10  10  10  10   4 8 7 5 4 
   8  10  10  10  10   5 19 18 16 15 7 
   1  10  10  10  10   7 19 18 17 16 15 14 13 
   4  10  10  10  10   5 18 17 16 13 10 
   2  10  10  10  10   5 18 17 15 14 13 
   1  10  10  10  10   3 20 11 10 
   7  10  10  10  10   4 17 16 15 13 
   6  10  10  10  10   3 16 15 13 
   1  10  10  10  10   1 14 
  10  10  10  10  10   1 13 
   6  10  10  10  10   1 14 
   5  10  10  10  10   1 22
   6  10  10  10  10   1 22
   6  10  10  10  10   1 22
   4  10  10  10  10   1 22
   9  10  10  10  10   1 22
   2  10  10  10  10   1 22
   2  10  10  10  10   1 22
   4  10  10  10  10   1 22
   2  10  10  10  10   1 22
   0   0   0   0   0   0 
